15
0 82 15 4 95 36 32 29 18 95 14 87 95 70 12
82 0 76 55 5 4 12 28 30 65 78 4 72 26 92
15 76 0 84 90 70 54 29 58 76 36 1 98 21 90
4 55 84 0 55 44 36 20 28 98 44 14 12 49 13
95 5 90 55 0 46 45 78 34 6 94 59 69 16 49
36 4 70 44 46 0 11 71 38 81 80 47 74 25 91
32 12 54 36 45 11 0 9 6 85 30 99 38 11 30
29 28 29 20 78 71 9 0 13 49 36 59 82 47 21
18 30 58 28 34 38 6 13 0 48 46 27 86 35 90
95 65 76 98 6 81 85 49 48 0 88 83 10 78 82
14 78 36 44 94 80 30 36 46 88 0 22 69 94 32
87 4 1 14 59 47 99 59 27 83 22 0 21 60 49
95 72 98 12 69 74 38 82 86 10 69 21 0 35 82
70 26 21 49 16 25 11 47 35 78 94 60 35 0 89
12 92 90 13 49 91 30 21 90 82 32 49 82 89 0
